proyfinal/src/viki/013/andrea/andrea-localstore/experimentInOfficeAgust.take6/worker_3/c1f4b549-a62f-4367-bb40-dd7bca90698e.als.cnf.out
Reading from standard input... Use '--help' for help.
============================[ Problem Statistics ]=============================
|                                                                             |
|  Number of variables:         87638                                         |
|  Number of clauses:          161767                                         |
|  Parse time:                   0.03 s                                       |
|                                                                             |
============================[ Search Statistics ]==============================
| Conflicts |          ORIGINAL         |          LEARNT          | Progress |
|           |    Vars  Clauses Literals |    Limit  Clauses Lit/Cl |          |
===============================================================================
|       100 |   63378   109068   271804 |    39991      100      9 | 27.682 % |
|       250 |   63378   109068   271804 |    43990      250     26 | 27.682 % |
|       475 |   63378   109068   271804 |    48389      475     54 | 27.682 % |
|       812 |   63378   109068   271804 |    53228      812     61 | 27.682 % |
|      1318 |   63378   109068   271804 |    58551     1318     55 | 27.682 % |
|      2077 |   63378   109068   271804 |    64406     2077     71 | 27.682 % |
|      3216 |   63330   108874   271350 |    70847     3211     89 | 27.737 % |
|      4924 |   63293   108724   271000 |    77932     4916     85 | 27.779 % |
|      7486 |   63273   108640   270807 |    85725     7463     81 | 27.802 % |
|     11330 |   63246   108453   270405 |    94298    10279     86 | 27.833 % |
|     17096 |   63246   108453   270405 |   103727    16045     89 | 27.833 % |
===============================================================================
restarts              : 70
conflicts             : 20199          (8046 /sec)
decisions             : 61846          (0.00 % random) (24637 /sec)
propagations          : 25927397       (10328274 /sec)
conflict literals     : 1821792        (49.92 % deleted)
Memory used           : 41.97 MB
CPU time              : 2.51033 s

INDETERMINATE
